# Objective value = 95605
x66 1
x67 0
x68 0
x69 0
x70 0
x71 1
x72 0
x73 0
x74 1
x75 1
x76 0
x77 0
x78 1
x79 1
x80 1
x81 1
x82 1
x83 0
x84 0
x85 0
x86 0
x87 0
x88 0
x89 1
x90 1
x91 1
x92 1
x93 0
x94 0
x95 0
x96 1
x97 1
x98 1
x99 1
x100 0
x101 1
x102 0
x103 0
x104 1
x105 1
x106 1
x107 1
x108 0
x109 1
x110 1
x111 0
x112 0
x113 1
x114 1
x115 1
x116 1
x117 0
x118 1
x119 1
x120 1
x121 1
x122 1
x123 0
x124 0
x125 0
x126 0
x127 1
x128 0
x129 0
x130 0
x131 0
x132 0
x133 0
x134 1
x135 1
x136 1
x137 1
x138 0
x139 1
x140 1
x141 1
x142 1
x143 0
x144 0
x145 0
x146 1
x147 1
x148 1
x149 1
x150 0
x151 1
x152 1
x153 1
x154 1
x155 0
x156 1
x157 0
x158 0
x159 1
x160 1
x161 1
x162 1
x163 0
x164 1
x165 1
x166 1
x167 1
x168 0
x169 1
x170 1
x171 0
x172 0
x173 1
x174 1
x175 1
x176 1
x177 0
x178 1
x179 1
x180 1
x181 1
x182 0
x183 1
x184 1
x185 1
x186 1
x187 1
x188 0
x189 0
x190 0
x191 0
x192 1
x193 0
x194 0
x195 0
x196 0
x197 1
x198 0
x199 0
x200 0
x201 0
x202 0
x203 0
x204 1
x205 1
x206 1
x207 1
x208 1
x209 0
x210 0
x211 1
x212 1
x213 1
x214 1
x215 1
x216 1
x217 1
x218 1
x219 0
x220 0
x221 0
x222 1
x223 0
x224 0
x225 0
x226 0
x227 0
x228 1
x229 1
x230 1
x231 1
x232 0
x233 1
x234 1
x235 0
x236 0
x237 1
x238 0
x239 1
x240 1
x241 1
x242 1
x243 1
x244 1
x245 0
x246 1
x247 0
x248 1
x249 0
x250 1
x251 1
x252 1
x253 1
x254 1
x255 1
x256 0
x257 1
x258 1
x259 0
x260 1
x261 0
x262 1
x263 1
x264 0
x265 1
x266 1
x267 1
x268 0
x269 1
x270 1
x271 1
x272 1
x273 0
x274 1
x275 0
x276 0
x277 0
x278 1
x279 0
x280 0
x281 1
x282 0
x283 0
x284 0
x285 0
x286 0
x287 0
x288 1
x289 1
x290 1
x291 0
x292 1
x293 1
x294 1
x295 0
x296 1
x297 1
x298 1
x299 1
x300 0
x301 1
x302 0
x303 1
x304 0
x305 0
x306 1
x307 0
x308 0
x309 0
x310 1
x311 0
x312 0
x313 0
x314 0
x315 1
x316 0
x317 0
x318 1
x319 1
x320 1
x321 1
x322 0
x323 1
x324 1
x325 1
x326 0
x327 1
x328 1
x329 1
x330 1
x331 0
x332 1
x333 0
x334 0
x335 1
x336 1
x337 1
x338 1
x339 0
x340 1
x341 1
x342 1
x343 0
x344 1
x345 1
x346 1
x347 1
x348 0
x349 1
x350 0
x351 1
x352 1
x353 1
x354 0
x355 0
x356 0
x357 0
x358 1
x359 0
x360 0
x361 1
x362 0
x363 0
x364 0
x365 0
x366 1
x367 0
x368 1
x369 0
x370 0
x371 0
x372 1
x373 0
x374 1
x375 1
x376 1
x377 0
x378 1
x379 1
x380 0
x381 1
x382 1
x383 1
x384 1
x385 0
x386 1
x387 0
x388 1
x389 1
x390 0
x391 0
x392 1
x393 1
x394 1
x395 1
x396 1
x397 0
x398 1
x399 1
x400 0
x401 1
x402 1
x403 1
x404 1
x405 0
x406 1
x407 0
x408 1
x409 1
x410 0
x411 1
x412 0
x413 1
x414 1
x415 1
x416 1
x417 1
x418 0
x419 1
x420 1
x421 0
x422 1
x423 1
x424 1
x425 1
x426 0
x427 1
x428 0
x429 1
x430 1
x431 0
x432 1
x433 1
x434 0
x435 0
x436 1
x437 1
x438 1
x439 1
x440 1
x441 1
x442 0
x443 1
x444 1
x445 0
x446 0
x447 1
x448 1
x449 1
x450 0
x451 1
x452 1
x453 0
x454 1
x455 1
x456 1
x457 0
x458 0
x459 1
x460 1
x461 1
x462 1
x463 1
x464 1
x465 0
x466 1
x467 1
x468 1
x469 1
x470 1
x471 1
x472 0
x473 0
x474 0
x475 0
x476 0
x477 0
x478 1
x479 0
x480 1
x481 0
x482 0
x483 0
x484 0
x485 0
x486 1
x487 0
x488 1
x489 1
x490 1
x491 1
x492 1
x493 1
x494 0
x495 1
x496 1
x497 1
x498 0
x499 0
x500 1
x501 1
x502 0
x503 1
x504 1
x505 1
x506 1
x507 1
x508 1
x509 0
x510 1
x511 1
x512 1
x513 0
x514 1
x515 1
x516 0
x517 0
x518 1
x519 0
x520 0
x521 1
x522 0
x523 0
x524 0
x525 1
x526 0
x527 0
x528 0
x529 1
x530 0
x531 0
x532 0
x533 1
x534 1
x535 0
x536 1
x537 1
x538 1
x539 1
x540 1
x541 1
x542 0
x543 1
x544 1
x545 1
x546 0
x547 1
x548 1
x549 0
x550 1
x551 0
x552 0
x553 1
x554 0
x555 0
x556 0
x557 1
x558 0
x559 0
x560 1
x561 0
x562 0
x563 0
x564 1
x565 0
x566 0
x567 1
x568 0
x569 0
x570 1
x571 1
x572 0
x573 1
x574 1
x575 1
x576 0
x577 1
x578 1
x579 1
x580 1
x581 1
x582 1
x583 0
x584 1
x585 1
x586 0
x587 1
x588 0
x589 0
x590 1
x591 1
x592 0
x593 1
x594 1
x595 1
x596 0
x597 1
x598 1
x599 1
x600 1
x601 1
x602 1
x603 0
x604 1
x605 1
x606 0
x607 1
x608 0
x609 1
x610 0
x611 1
x612 1
x613 0
x614 1
x615 0
x616 1
x617 0
x618 1
x619 1
x620 1
x621 1
x622 1
x623 1
x624 0
x625 1
x626 1
x627 0
x628 1
x629 0
x630 1
x631 1
x632 0
x633 1
x634 1
x635 1
x636 1
x637 0
x638 1
x639 0
x640 1
x641 1
x642 1
x643 1
x644 1
x645 1
x646 0
x647 1
x648 1
x649 0
x650 1
x651 0
x652 1
x653 1
x654 1
x655 1
x656 0
x657 0
x658 0
x659 0
x660 1
x661 1
x662 1
x663 0
x664 0
x665 0
x666 0
x667 0
x668 0
x669 1
x670 0
x671 0
x672 1
x673 0
x674 1
x675 0
x676 0
x677 0
x678 0
x679 0
x680 0
x681 1
x682 1
x683 1
x684 0
x685 1
x686 0
x687 1
x688 1
x689 1
x690 1
x691 1
x692 1
x693 0
x694 1
x695 1
x696 0
x697 1
x698 0
x699 1
x700 1
x701 1
x702 1
x703 0
x704 0
x705 1
x706 1
x707 1
x708 1
x709 0
x710 1
x711 0
x712 1
x713 1
x714 1
x715 1
x716 1
x717 1
x718 0
x719 1
x720 1
x721 0
x722 1
x723 0
x724 1
x725 1
x726 1
x727 1
x728 0
x729 1
x730 0
x731 0
x732 1
x733 1
x734 1
x735 1
x736 1
x737 1
x738 0
x739 1
x740 1
x741 1
x742 1
x743 1
x744 0
x745 0
x746 1
x747 1
x748 1
x749 0
x750 0
x751 0
x752 1
x753 0
x754 0
x755 1
x756 0
x757 0
x758 0
x759 0
x760 0
x761 1
x762 0
x763 1
x764 0
x765 0
x766 0
x767 1
x768 1
x769 1
x770 1
x771 1
x772 1
x773 0
x774 1
x775 1
x776 1
x777 1
x778 1
x779 0
x780 1
x781 1
x782 1
x783 0
x784 0
x785 0
x786 1
x787 1
x788 1
x789 1
x790 1
x791 1
x792 0
x793 1
x794 0
x795 1
x796 1
x797 1
x798 0
x799 1
x800 1
x801 1
x802 0
x803 1
x804 1
x805 1
x806 0
x807 1
x808 0
x809 0
x810 0
x811 0
x812 0
x813 0
x814 1
x815 0
x816 0
x817 1
x818 0
x819 1
x820 0
x821 0
x822 1
x823 0
x824 0
x825 0
x826 1
x827 1
x828 0
x829 1
x830 1
x831 1
x832 1
x833 1
x834 1
x835 0
x836 1
x837 1
x838 0
x839 1
x840 1
x841 0
x842 1
x843 0
x844 1
x845 1
x846 0
x847 0
x848 1
x849 1
x850 0
x851 1
x852 1
x853 0
x854 1
x855 1
x856 1
x857 0
x858 1
x859 1
x860 0
x861 1
x862 1
x863 1
x864 1
x865 0
x866 1
x867 1
x868 0
x869 1
x870 0
x871 1
x872 1
x873 0
x874 1
x875 1
x876 1
x877 1
x878 1
x879 1
x880 0
x881 1
x882 1
x883 0
x884 1
x885 1
x886 1
x887 1
x888 0
x889 1
x890 1
x891 0
x892 1
x893 1
x894 0
x895 1
x896 1
x897 0
x898 1
x899 1
x900 1
x901 0
x902 1
x903 1
x904 0
x905 1
x906 1
x907 0
x908 1
x909 1
x910 1
x911 1
x912 0
x913 1
x914 1
x915 0
x916 1
x917 1
x918 1
x919 0
x920 1
x921 1
x922 0
x923 1
x924 1
x925 1
x926 0
x927 1
x928 1
x929 1
x930 1
x931 1
x932 0
x933 1
x934 1
x935 1
x936 1
x937 0
x938 1
x939 1
x940 0
x941 1
x942 1
x943 1
x944 1
x945 0
x946 1
x947 1
x948 0
x949 1
x950 1
x951 1
x952 0
x953 1
x954 1
x955 1
x956 1
x957 0
x958 0
x959 1
x960 1
x961 1
x962 1
x963 0
x964 1
x965 1
x966 0
x967 1
x968 1
x969 1
x970 1
x971 1
x972 1
x973 0
x974 0
x975 1
x976 0
x977 1
x978 0
x979 1
x980 0
x981 0
x982 0
x983 1
x984 0
x985 1
x986 0
x987 0
x988 0
x989 0
x990 1
x991 0
x992 0
x993 1
x994 0
x995 0
x996 0
x997 0
x998 0
x999 0
x1000 0
x1001 1
x1002 1
x1003 1
x1004 1
x1005 0
x1006 1
x1007 0
x1008 1
x1009 1
x1010 1
x1011 1
x1012 1
x1013 1
x1014 0
x1015 1
x1016 1
x1017 1
x1018 0
x1019 1
x1020 1
x1021 0
x1022 1
x1023 1
x1024 1
x1025 1
x1026 1
x1027 1
x1028 0
x1029 0
x1030 1
x1031 1
x1032 1
x1033 1
x1034 0
x1035 0
x1036 0
x1037 1
x1038 1
x1039 1
x1040 1
x1041 1
x1042 1
x1043 0
x1044 1
x1045 1
x1046 1
x1047 0
x1048 1
x1049 1
x1050 0
x1051 1
x1052 1
x1053 1
x1054 1
x1055 1
x1056 1
x1057 0
x1058 1
x1059 1
x1060 1
x1061 0
x1062 0
x1063 0
x1064 1
x1065 0
x1066 1
x1067 0
x1068 0
x1069 0
x1070 0
x1071 1
x1072 0
x1073 1
x1074 0
x1075 0
x1076 0
x1077 1
x1078 0
x1079 0
x1080 1
x1081 0
x1082 0
x1083 0
x1084 0
x1085 0
x1086 0
x1087 1
x1088 0
x1089 0
x1090 0
x1091 1
x1092 1
x1093 1
x1094 1
x1095 0
x1096 1
x1097 0
x1098 1
x1099 1
x1100 1
x1101 0
x1102 1
x1103 1
x1104 0
x1105 1
x1106 1
x1107 1
x1108 0
x1109 1
x1110 1
x1111 0
x1112 1
x1113 1
x1114 1
x1115 1
x1116 1
x1117 1
x1118 0
x1119 1
x1120 1
x1121 0
x1 1
x2 1
x3 0
x4 0
x5 0
x6 0
x7 1
x8 0
x9 0
x10 0
x11 0
x12 1
x13 0
x14 0
x15 0
x16 0
x17 1
x18 0
x19 0
x20 1
x21 0
x22 0
x23 0
x24 0
x25 1
x26 0
x27 1
x28 0
x29 0
x30 1
x31 0
x32 0
x33 0
x34 0
x35 0
x36 0
x37 1
x38 0
x39 0
x40 1
x41 0
x42 1
x43 0
x44 0
x45 0
x46 0
x47 1
x48 0
x49 0
x50 0
x51 1
x52 0
x53 0
x54 1
x55 0
x56 0
x57 0
x58 0
x59 0
x60 0
x61 1
x62 0
x63 0
x64 1
x65 0
